p tw 55 65
1 2
2 13
3 4
4 5
5 6
6 7
7 8
8 9
8 12
9 10
10 11
10 12
11 50
12 14
13 24
13 46
14 15
15 16
16 17
17 18
17 20
18 19
19 43
20 21
21 22
22 23
23 25
24 35
25 26
25 32
26 27
27 28
28 29
28 32
29 30
30 31
31 23
32 33
33 34
34 36
34 43
35 53
36 37
36 43
37 38
38 39
39 40
40 41
40 43
41 42
42 38
43 44
44 45
44 47
45 47
46 52
47 48
48 49
49 50
50 51
52 53
53 54
54 55
54 4
55 3
